SECTION Graph
Nodes 211
Edges 380
E 1 174 17
E 1 184 1
E 2 188 1
E 3 5 7
E 4 5 2
E 4 59 85
E 5 48 85
E 6 167 17
E 6 171 1
E 6 175 7
E 7 166 24
E 7 175 2
E 8 133 145
E 8 164 2
E 8 168 18
E 8 172 23
E 9 164 6
E 9 167 1
E 9 171 17
E 9 173 20
E 10 192 8
E 11 186 7
E 11 191 5
E 12 13 1
E 12 77 7
E 12 85 1
E 12 88 1
E 13 15 15
E 13 86 1
E 13 89 1
E 14 15 1
E 14 86 15
E 15 94 1
E 16 182 16
E 16 190 3
E 17 192 2
E 17 193 1
E 18 150 8
E 18 153 1
E 18 161 116
E 19 144 2
E 19 145 1
E 19 150 1
E 19 153 8
E 20 149 1
E 20 150 1
E 20 157 115
E 21 132 8
E 21 134 5
E 21 146 7
E 22 23 5
E 22 110 26
E 22 125 7
E 22 127 1
E 23 32 7
E 23 126 7
E 23 132 1
E 24 183 1
E 24 185 2
E 24 187 7
E 25 182 8
E 25 183 7
E 25 187 1
E 26 185 7
E 26 187 2
E 27 154 1
E 27 155 2
E 27 156 7
E 28 149 115
E 28 154 7
E 28 156 1
E 28 157 1
E 29 155 7
E 29 156 2
E 29 159 1
E 29 177 38
E 30 31 4
E 30 131 1
E 30 136 7
E 31 135 2
E 31 142 7
E 32 131 7
E 32 136 1
E 32 137 1
E 33 135 7
E 33 142 2
E 33 144 1
E 33 145 2
E 34 50 4
E 34 57 25
E 35 52 2
E 35 67 2
E 35 72 21
E 35 78 28
E 36 63 29
E 36 69 16
E 36 73 2
E 36 76 7
E 37 42 16
E 37 73 2
E 37 82 7
E 38 67 28
E 38 68 23
E 38 76 1
E 38 78 2
E 39 82 2
E 39 87 2
E 40 41 7
E 40 66 2
E 41 42 2
E 41 69 2
E 41 73 16
E 43 44 7
E 43 56 1
E 43 58 2
E 44 45 2
E 44 61 1
E 44 62 16
E 45 58 7
E 45 63 16
E 45 68 28
E 46 47 1
E 47 54 349
E 48 59 2
E 49 59 7
E 49 185 363
E 50 51 1
E 50 60 25
E 50 75 30
E 51 52 1
E 51 61 25
E 51 77 30
E 52 65 2
E 52 70 21
E 53 73 7
E 53 76 2
E 53 82 2
E 53 83 2
E 54 55 4
E 54 57 7
E 55 56 1
E 55 60 7
E 56 61 7
E 57 60 4
E 58 64 28
E 60 61 1
E 62 63 2
E 62 65 7
E 63 67 7
E 64 66 1
E 64 68 7
E 65 67 2
E 66 69 7
E 68 69 1
E 70 71 1
E 70 72 2
E 71 74 2
E 71 79 8
E 72 74 1
E 72 92 28
E 74 81 8
E 74 93 28
E 75 77 1
E 75 85 7
E 76 80 2
E 77 79 1
E 78 80 1
E 78 92 21
E 79 81 2
E 79 88 7
E 80 83 2
E 80 99 30
E 81 90 7
E 81 98 28
E 82 84 2
E 83 84 2
E 83 95 21
E 84 87 2
E 85 86 1
E 87 101 30
E 87 103 31
E 87 125 55
E 88 89 1
E 88 90 2
E 89 91 2
E 89 94 15
E 90 91 1
E 90 102 28
E 91 97 15
E 91 104 28
E 92 93 1
E 92 95 3
E 93 96 3
E 93 98 8
E 94 97 2
E 95 96 1
E 95 103 14
E 96 100 8
E 96 109 17
E 97 118 28
E 98 99 1
E 98 102 7
E 99 100 2
E 100 101 4
E 100 106 7
E 101 112 7
E 101 114 10
E 102 104 1
E 102 106 3
E 103 105 2
E 103 114 9
E 104 108 3
E 104 118 15
E 105 107 1
E 105 115 9
E 106 108 1
E 106 112 4
E 107 109 1
E 107 110 2
E 108 113 4
E 108 119 15
E 109 111 2
E 109 116 8
E 110 111 1
E 111 117 8
E 111 127 26
E 112 113 1
E 112 120 13
E 113 121 13
E 113 124 15
E 114 115 2
E 114 128 23
E 115 116 1
E 115 129 23
E 116 117 2
E 116 120 7
E 117 122 7
E 117 134 26
E 118 119 3
E 119 124 4
E 120 121 1
E 120 122 2
E 121 123 2
E 121 130 15
E 122 123 1
E 123 133 15
E 124 128 10
E 125 126 5
E 126 131 7
E 127 132 5
E 127 134 8
E 128 129 2
E 128 160 145
E 129 130 1
E 129 163 145
E 130 133 2
E 130 164 145
E 132 137 7
E 134 169 175
E 135 138 2
E 136 139 1
E 136 142 4
E 137 139 1
E 137 146 8
E 138 140 1
E 138 145 7
E 139 143 4
E 139 148 8
E 140 141 1
E 140 147 7
E 141 149 7
E 141 154 115
E 142 143 1
E 143 144 2
E 143 151 8
E 144 152 8
E 145 147 1
E 146 148 1
E 147 149 1
E 147 150 1
E 148 151 4
E 151 152 2
E 152 153 2
E 155 170 38
E 156 158 1
E 157 158 1
E 157 161 8
E 158 159 2
E 158 162 8
E 159 165 8
E 160 163 2
E 160 166 6
E 161 162 1
E 162 165 2
E 163 164 1
E 163 167 6
E 165 186 45
E 166 167 2
E 168 169 1
E 168 173 6
E 169 174 6
E 170 176 7
E 170 177 7
E 171 172 2
E 171 178 7
E 172 179 7
E 172 184 18
E 173 174 1
E 173 184 17
E 175 178 1
E 176 180 3
E 176 181 7
E 177 181 7
E 177 186 16
E 178 179 2
E 179 188 18
E 180 182 7
E 180 183 8
E 181 182 3
E 181 190 16
E 184 188 7
E 186 189 5
E 189 190 2
E 189 191 7
E 190 193 7
E 191 192 1
E 191 193 2
E 1 194 100000
E 2 194 100000
E 3 195 100000
E 4 195 100000
E 5 195 100000
E 6 196 100000
E 7 196 100000
E 8 197 100000
E 9 197 100000
E 10 198 100000
E 11 198 100000
E 12 199 100000
E 13 199 100000
E 14 199 100000
E 15 199 100000
E 16 200 100000
E 17 200 100000
E 18 201 100000
E 19 201 100000
E 20 201 100000
E 21 202 100000
E 22 202 100000
E 23 202 100000
E 24 203 100000
E 25 203 100000
E 26 203 100000
E 27 204 100000
E 28 204 100000
E 29 204 100000
E 30 205 100000
E 31 205 100000
E 32 205 100000
E 33 205 100000
E 34 206 100000
E 35 206 100000
E 36 207 100000
E 37 207 100000
E 38 207 100000
E 39 207 100000
E 40 208 100000
E 41 208 100000
E 42 208 100000
E 43 209 100000
E 44 209 100000
E 45 209 100000
E 46 210 100000
E 47 210 100000
E 48 211 100000
E 49 211 100000
E 50 206 100000
E 51 206 100000
E 52 206 100000
E 53 207 100000
END

SECTION Terminals
Terminals 18
T 194
T 195
T 196
T 197
T 198
T 199
T 200
T 201
T 202
T 203
T 204
T 205
T 206
T 207
T 208
T 209
T 210
T 211
END

EOF
